sifdecoder -A pc64.lnx.gfo -st   DUAL2

 Problem name: DUAL2

 Double precision version will be formed

 The objective function uses 1 nonlinear group
 
 There is 1 linear equality constraint
 
 There are 96 variables bounded from below and above 
 
 
 File successfully decoded
 CUTEST: tools (double precision version) compiled successfully
 CUTEst: ipopt (double precision version) compiled successfully

******************************************************************************
This program contains Ipopt, a library for large-scale nonlinear optimization.
 Ipopt is released as open source code under the Eclipse Public License (EPL).
         For more information visit http://projects.coin-or.org/Ipopt
******************************************************************************

This is Ipopt version trunk, running with linear solver ma57.

Number of nonzeros in equality constraint Jacobian...:       96
Number of nonzeros in inequality constraint Jacobian.:        0
Number of nonzeros in Lagrangian Hessian.............:     4508

Total number of variables............................:       96
                     variables with only lower bounds:        0
                variables with lower and upper bounds:       96
                     variables with only upper bounds:        0
Total number of equality constraints.................:        1
Total number of inequality constraints...............:        0
        inequality constraints with only lower bounds:        0
   inequality constraints with lower and upper bounds:        0
        inequality constraints with only upper bounds:        0

iter    objective    inf_pr   inf_du lg(mu)  ||d||  lg(rg) alpha_du alpha_pr  ls
   0  4.1972504e-01 4.00e-02 4.77e+00  -1.0 0.00e+00    -  0.00e+00 0.00e+00   0
   1  9.6290011e-02 1.64e-15 3.89e-15  -1.0 1.44e-02    -  1.00e+00 1.00e+00h  1
   2  8.5161631e-02 1.01e-16 7.64e-01  -2.5 2.37e-03    -  9.20e-01 1.00e+00f  1
   3  5.7319957e-02 2.38e-16 2.18e-15  -2.5 1.21e-02    -  1.00e+00 1.00e+00f  1
   4  4.0972890e-02 3.26e-16 1.17e-01  -3.8 6.43e-03    -  7.92e-01 1.00e+00f  1
   5  3.5973810e-02 4.61e-16 6.00e-02  -3.8 4.83e-03    -  7.65e-01 1.00e+00f  1
   6  3.4733905e-02 2.67e-16 1.56e-15  -3.8 2.57e-03    -  1.00e+00 1.00e+00f  1
   7  3.4002152e-02 4.63e-16 7.29e-03  -5.7 1.62e-03    -  8.86e-01 1.00e+00f  1
   8  3.3799734e-02 4.44e-16 2.10e-03  -5.7 9.83e-04    -  9.13e-01 1.00e+00f  1
   9  3.3750776e-02 1.99e-16 2.40e-15  -5.7 4.27e-04    -  1.00e+00 1.00e+00f  1
iter    objective    inf_pr   inf_du lg(mu)  ||d||  lg(rg) alpha_du alpha_pr  ls
  10  3.3735534e-02 1.75e-16 1.18e-04  -8.6 2.65e-04    -  9.75e-01 1.00e+00f  1
  11  3.3733768e-02 6.77e-17 1.89e-15  -8.6 1.13e-04    -  1.00e+00 1.00e+00f  1
  12  3.3733681e-02 3.07e-16 1.35e-15  -8.6 3.55e-05    -  1.00e+00 1.00e+00f  1
  13  3.3733680e-02 1.30e-16 1.79e-15  -8.6 4.35e-06    -  1.00e+00 1.00e+00h  1

Number of Iterations....: 13

                                   (scaled)                 (unscaled)
Objective...............:   3.3733680487010878e-02    3.3733680487010878e-02
Dual infeasibility......:   1.7870355595421656e-15    1.7870355595421656e-15
Constraint violation....:   1.3010426069826053e-16    1.3010426069826053e-16
Complementarity.........:   2.9009862466974975e-09    2.9009862466974975e-09
Overall NLP error.......:   2.9009862466974975e-09    2.9009862466974975e-09


Number of objective function evaluations             = 14
Number of objective gradient evaluations             = 14
Number of equality constraint evaluations            = 14
Number of inequality constraint evaluations          = 0
Number of equality constraint Jacobian evaluations   = 14
Number of inequality constraint Jacobian evaluations = 0
Number of Lagrangian Hessian evaluations             = 13
Total CPU secs in IPOPT (w/o function evaluations)   =      0.057
Total CPU secs in NLP function evaluations           =      0.054

EXIT: Optimal Solution Found.

************************ CUTEst statistics ************************


 Package used            :  IPOPT
 Problem                 :  DUAL2     
 # variables             =              96
 # constraints           =               1
 # objective functions   =        0.2900000E+02
 # objective gradients   =        0.1500000E+02
 # objective Hessians    =        0.1400000E+02
 # Hessian-vector prdct  =        0.0000000E+00
 # constraints functions =        0.3000000E+02
 # constraints gradients =        0.1600000E+02
 # constraints Hessians  =        0.1400000E+02
 Exit code               =               0
 Final f                 =        3.3733680487010878D-02
 Bounds feasibility      =        0.0000000000000000D+00
 Set up time             =            0.15 seconds
 Solve time              =            0.23 seconds


******************************************************************

